
  22   10
  10   10   10   10   10   10   10   10   10   10

   0   0   0   0   0   0   0   0   0   0   0   2 2 6 
   4  10  10  10  10  10  10  10  10  10  10   2 9 3 
  10  10  10  10  10  10  10  10  10  10  10   1 4 
   4  10  10  10  10  10  10  10  10  10  10   1 5 
   2  10  10  10  10  10  10  10  10  10  10   2 17 7 
   6  10  10  10  10  10  10  10  10  10  10   2 17 8 
   6  10  10  10  10  10  10  10  10  10  10   1 8 
   9  10  10  10  10  10  10  10  10  10  10   2 16 10 
   2  10  10  10  10  10  10  10  10  10  10   1 10 
   8  10  10  10  10  10  10  10  10  10  10   1 11 
   1  10  10  10  10  10  10  10  10  10  10   1 12 
   1  10  10  10  10  10  10  10  10  10  10   1 13 
   9  10  10  10  10  10  10  10  10  10  10   2 19 14 
   7  10  10  10  10  10  10  10  10  10  10   1 15 
   6  10  10  10  10  10  10  10  10  10  10   2 20 18 
   2  10  10  10  10  10  10  10  10  10  10   2 21 19 
   1  10  10  10  10  10  10  10  10  10  10   2 20 18 
   4  10  10  10  10  10  10  10  10  10  10   1 21 
   2  10  10  10  10  10  10  10  10  10  10   1 20 
   8  10  10  10  10  10  10  10  10  10  10   1 22
   4  10  10  10  10  10  10  10  10  10  10   1 22
   0   0   0   0   0   0   0   0   0   0   0   0 
